NAME:  br5
TYPE: ATSP
COMMENT: 5 city problem (Repetto)
DIMENSION:  5
EDGE_WEIGHT_TYPE: EXPLICIT
EDGE_WEIGHT_FORMAT: FULL_MATRIX
EDGE_WEIGHT_SECTION
9999    9999    1       9999    9999
9999    9999    9999    9999    1
9999    1       9999    9999    9999
1       9999    9999    9999    9999
9999    9999    9999    1       9999
EOF

Correct circuit in this case: 1-3-2-5-4-1, total cost: 5